26243
1 0 1 0 1 0 0 0 0 1 1 1 1 1 0 0 1 0 1 1 0 1 0 0 0 0 0 0 0 0 
18 19 21 18 2 12 21 0 18 0 4 19 13 13 19 18 13 10 16 0 18 16 2 0 10 18 18 19 4 2 19 19 4 16 18 12 10 9 16 16 18 9 12 4 9 19 13 21 19 10 0 16 2 16 9 12 11 9 18 11 4 0 18 9 13 11 2 19 19 12 18 12 19 9 10 13 10 10 9 16 10 0 9 11 4 13 19 2 18 18 11 19 11 11 2 13 11 12 0 11 19 21 12 18 4 0 4 16 16 13 19 4 18 12 12 9 11 11 0 9 9 11 0 19 9 16 2 11 19 0 11 21 11 10 13 9 13 13 11 10 12 18 11 11 11 2 16 21 18 11 0 0 10 0 13 11 2 16 13 13 13 0 10 2 10 18 2 4 13 21 13 10 19 10 4 2 0 10 4 10 2 21 2 19 12 9 11 10 0 21 2 21 19 4 18 12 18 21 10 19 
